n_res = 4;
rc = [ 12, 15, 14, 14 ];
n_tasks = 30;
d = [ 10, 3, 10, 4, 10, 10, 3, 3, 8, 8, 7, 1, 10, 7, 3, 10, 4, 4, 10, 7, 10, 10, 4, 2, 1, 7, 2, 2, 10, 5 ];
rr = [| 0, 0, 0, 0, 0, 0, 0, 0, 0, 0, 9, 0, 0, 0, 10, 3, 3, 0, 0, 0, 0, 8, 0, 0, 0, 6, 0, 0, 0, 0
      | 10, 0, 0, 0, 9, 0, 0, 0, 4, 0, 0, 0, 0, 0, 0, 0, 0, 10, 0, 0, 0, 0, 0, 0, 0, 0, 3, 0, 0, 0
      | 0, 6, 0, 0, 0, 4, 0, 9, 0, 6, 0, 0, 0, 0, 0, 0, 0, 0, 6, 0, 0, 0, 6, 2, 10, 0, 0, 9, 9, 0
      | 0, 0, 4, 8, 0, 0, 8, 0, 0, 0, 0, 4, 4, 8, 0, 0, 0, 0, 0, 7, 1, 0, 0, 0, 0, 0, 0, 0, 0, 10 |];
suc = [ { 2 }, 
        { 1 }, 
        { 4 }, 
        { 3 }, 
        { 6 }, 
        { 5 }, 
        { 8 }, 
        { 7 }, 
        { 10 }, 
        { 9 }, 
        { 12 }, 
        { 11 }, 
        { 14 }, 
        { 13 }, 
        { 16 }, 
        { 15 }, 
        { 18 }, 
        { 17 }, 
        { 20 }, 
        { 19 }, 
        { 22 }, 
        { 21 }, 
        { 24 }, 
        { 23 }, 
        { 26 }, 
        { 25 }, 
        { 28 }, 
        { 27 }, 
        { 30 }, 
        { 29 }]; 
